c SAT-encoding for the no-three-in-line problem of N=4
p cnf 160 500
-17 -23 0
7 4 -23 0
-7 23 0
-4 23 0
-18 -24 0
10 4 -24 0
-10 24 0
-4 24 0
-19 -25 0
10 7 -25 0
-10 25 0
-7 25 0
-20 -26 0
13 4 -26 0
-13 26 0
-4 26 0
-21 -27 0
13 7 -27 0
-13 27 0
-7 27 0
-22 -28 0
13 10 -28 0
-13 28 0
-10 28 0
-17 13 0
-17 10 0
-13 -10 17 0
-18 13 0
-18 7 0
-13 -7 18 0
-19 13 0
-19 4 0
-13 -4 19 0
-20 10 0
-20 7 0
-10 -7 20 0
-21 10 0
-21 4 0
-10 -4 21 0
-22 7 0
-22 4 0
-7 -4 22 0
-29 -32 0
3 -32 0
-3 32 0
-30 -33 0
6 -33 0
-6 33 0
-31 -34 0
9 -34 0
-9 34 0
-29 9 0
-29 6 0
-9 -6 29 0
-30 9 0
-30 3 0
-9 -3 30 0
-31 6 0
-31 3 0
-6 -3 31 0
-35 -38 0
8 -38 0
-8 38 0
-36 -39 0
11 -39 0
-11 39 0
-37 -40 0
14 -40 0
-14 40 0
-35 14 0
-35 11 0
-14 -11 35 0
-36 14 0
-36 8 0
-14 -8 36 0
-37 11 0
-37 8 0
-11 -8 37 0
41 42 43 44 45 46 0
-41 -47 0
15 16 -47 0
-15 47 0
-16 47 0
-42 -48 0
14 16 -48 0
-14 48 0
-16 48 0
-43 -49 0
14 15 -49 0
-14 49 0
-15 49 0
-44 -50 0
13 16 -50 0
-13 50 0
-16 50 0
-45 -51 0
13 15 -51 0
-13 51 0
-15 51 0
-46 -52 0
13 14 -52 0
-13 52 0
-14 52 0
-41 13 0
-41 14 0
-13 -14 41 0
-42 13 0
-42 15 0
-13 -15 42 0
-43 13 0
-43 16 0
-13 -16 43 0
-44 14 0
-44 15 0
-14 -15 44 0
-45 14 0
-45 16 0
-14 -16 45 0
-46 15 0
-46 16 0
-15 -16 46 0
53 54 55 56 57 58 0
-53 -59 0
3 4 -59 0
-3 59 0
-4 59 0
-54 -60 0
2 4 -60 0
-2 60 0
-4 60 0
-55 -61 0
2 3 -61 0
-2 61 0
-3 61 0
-56 -62 0
1 4 -62 0
-1 62 0
-4 62 0
-57 -63 0
1 3 -63 0
-1 63 0
-3 63 0
-58 -64 0
1 2 -64 0
-1 64 0
-2 64 0
-53 1 0
-53 2 0
-1 -2 53 0
-54 1 0
-54 3 0
-1 -3 54 0
-55 1 0
-55 4 0
-1 -4 55 0
-56 2 0
-56 3 0
-2 -3 56 0
-57 2 0
-57 4 0
-2 -4 57 0
-58 3 0
-58 4 0
-3 -4 58 0
65 66 67 68 69 70 0
-65 -71 0
7 8 -71 0
-7 71 0
-8 71 0
-66 -72 0
6 8 -72 0
-6 72 0
-8 72 0
-67 -73 0
6 7 -73 0
-6 73 0
-7 73 0
-68 -74 0
5 8 -74 0
-5 74 0
-8 74 0
-69 -75 0
5 7 -75 0
-5 75 0
-7 75 0
-70 -76 0
5 6 -76 0
-5 76 0
-6 76 0
-65 5 0
-65 6 0
-5 -6 65 0
-66 5 0
-66 7 0
-5 -7 66 0
-67 5 0
-67 8 0
-5 -8 67 0
-68 6 0
-68 7 0
-6 -7 68 0
-69 6 0
-69 8 0
-6 -8 69 0
-70 7 0
-70 8 0
-7 -8 70 0
77 78 79 80 81 82 0
-77 -83 0
11 12 -83 0
-11 83 0
-12 83 0
-78 -84 0
10 12 -84 0
-10 84 0
-12 84 0
-79 -85 0
10 11 -85 0
-10 85 0
-11 85 0
-80 -86 0
9 12 -86 0
-9 86 0
-12 86 0
-81 -87 0
9 11 -87 0
-9 87 0
-11 87 0
-82 -88 0
9 10 -88 0
-9 88 0
-10 88 0
-77 9 0
-77 10 0
-9 -10 77 0
-78 9 0
-78 11 0
-9 -11 78 0
-79 9 0
-79 12 0
-9 -12 79 0
-80 10 0
-80 11 0
-10 -11 80 0
-81 10 0
-81 12 0
-10 -12 81 0
-82 11 0
-82 12 0
-11 -12 82 0
-89 -95 0
11 16 -95 0
-11 95 0
-16 95 0
-90 -96 0
6 16 -96 0
-6 96 0
-16 96 0
-91 -97 0
6 11 -97 0
-6 97 0
-11 97 0
-92 -98 0
1 16 -98 0
-1 98 0
-16 98 0
-93 -99 0
1 11 -99 0
-1 99 0
-11 99 0
-94 -100 0
1 6 -100 0
-1 100 0
-6 100 0
-89 1 0
-89 6 0
-1 -6 89 0
-90 1 0
-90 11 0
-1 -11 90 0
-91 1 0
-91 16 0
-1 -16 91 0
-92 6 0
-92 11 0
-6 -11 92 0
-93 6 0
-93 16 0
-6 -16 93 0
-94 11 0
-94 16 0
-11 -16 94 0
-101 -104 0
15 -104 0
-15 104 0
-102 -105 0
10 -105 0
-10 105 0
-103 -106 0
5 -106 0
-5 106 0
-101 5 0
-101 10 0
-5 -10 101 0
-102 5 0
-102 15 0
-5 -15 102 0
-103 10 0
-103 15 0
-10 -15 103 0
-107 -110 0
12 -110 0
-12 110 0
-108 -111 0
7 -111 0
-7 111 0
-109 -112 0
2 -112 0
-2 112 0
-107 2 0
-107 7 0
-2 -7 107 0
-108 2 0
-108 12 0
-2 -12 108 0
-109 7 0
-109 12 0
-7 -12 109 0
113 114 115 116 117 118 0
-113 -119 0
9 13 -119 0
-9 119 0
-13 119 0
-114 -120 0
5 13 -120 0
-5 120 0
-13 120 0
-115 -121 0
5 9 -121 0
-5 121 0
-9 121 0
-116 -122 0
1 13 -122 0
-1 122 0
-13 122 0
-117 -123 0
1 9 -123 0
-1 123 0
-9 123 0
-118 -124 0
1 5 -124 0
-1 124 0
-5 124 0
-113 1 0
-113 5 0
-1 -5 113 0
-114 1 0
-114 9 0
-1 -9 114 0
-115 1 0
-115 13 0
-1 -13 115 0
-116 5 0
-116 9 0
-5 -9 116 0
-117 5 0
-117 13 0
-5 -13 117 0
-118 9 0
-118 13 0
-9 -13 118 0
125 126 127 128 129 130 0
-125 -131 0
12 16 -131 0
-12 131 0
-16 131 0
-126 -132 0
8 16 -132 0
-8 132 0
-16 132 0
-127 -133 0
8 12 -133 0
-8 133 0
-12 133 0
-128 -134 0
4 16 -134 0
-4 134 0
-16 134 0
-129 -135 0
4 12 -135 0
-4 135 0
-12 135 0
-130 -136 0
4 8 -136 0
-4 136 0
-8 136 0
-125 4 0
-125 8 0
-4 -8 125 0
-126 4 0
-126 12 0
-4 -12 126 0
-127 4 0
-127 16 0
-4 -16 127 0
-128 8 0
-128 12 0
-8 -12 128 0
-129 8 0
-129 16 0
-8 -16 129 0
-130 12 0
-130 16 0
-12 -16 130 0
137 138 139 140 141 142 0
-137 -143 0
11 15 -143 0
-11 143 0
-15 143 0
-138 -144 0
7 15 -144 0
-7 144 0
-15 144 0
-139 -145 0
7 11 -145 0
-7 145 0
-11 145 0
-140 -146 0
3 15 -146 0
-3 146 0
-15 146 0
-141 -147 0
3 11 -147 0
-3 147 0
-11 147 0
-142 -148 0
3 7 -148 0
-3 148 0
-7 148 0
-137 3 0
-137 7 0
-3 -7 137 0
-138 3 0
-138 11 0
-3 -11 138 0
-139 3 0
-139 15 0
-3 -15 139 0
-140 7 0
-140 11 0
-7 -11 140 0
-141 7 0
-141 15 0
-7 -15 141 0
-142 11 0
-142 15 0
-11 -15 142 0
149 150 151 152 153 154 0
-149 -155 0
10 14 -155 0
-10 155 0
-14 155 0
-150 -156 0
6 14 -156 0
-6 156 0
-14 156 0
-151 -157 0
6 10 -157 0
-6 157 0
-10 157 0
-152 -158 0
2 14 -158 0
-2 158 0
-14 158 0
-153 -159 0
2 10 -159 0
-2 159 0
-10 159 0
-154 -160 0
2 6 -160 0
-2 160 0
-6 160 0
-149 2 0
-149 6 0
-2 -6 149 0
-150 2 0
-150 10 0
-2 -10 150 0
-151 2 0
-151 14 0
-2 -14 151 0
-152 6 0
-152 10 0
-6 -10 152 0
-153 6 0
-153 14 0
-6 -14 153 0
-154 10 0
-154 14 0
-10 -14 154 0
